NAME : rat99.tsp
TYPE : TOUR
DIMENSION : 99
TOUR_LENGTH : 1358.1281903311317
TOUR_SECTION
1
2
4
5
6
7
8
9
18
27
17
16
15
14
3
11
12
13
21
22
23
24
25
26
35
36
44
45
54
63
72
81
80
71
70
69
78
79
88
89
90
99
98
97
87
86
95
96
94
93
92
91
82
83
84
85
76
77
68
67
66
65
74
75
73
64
56
57
58
59
60
61
62
53
52
51
42
43
34
33
32
41
40
39
48
50
49
55
46
47
38
29
37
28
30
31
19
20
10
-1
